3 5
90 92 67 
0 84 74 102 92 21 11 16 47 38 24 52 81 1
1 98 88 75 65 51 41 76 92 98 10 11 30 1
2 100 90 35 25 77 67 86 89 50 90 59 17 1
3 35 25 43 33 60 50 37 97 45 93 38 26 3
4 62 52 41 31 11 1 100 42 88 49 92 24 1
